0 50540 
1 50376 
2 48194 
3 46990 
4 46976 
5 46400 
6 45616 
7 44504 
8 43584 
9 42718 
10 42682 
11 42530 
12 41018 
13 41010 
14 40674 
15 40576 
16 38572 
17 37916 
18 37700 
19 37588 
20 35578 
21 35210 
22 33992 
23 29962 
24 29578 
25 28234 
26 28090 
27 26606 
28 26072 
29 25896 
30 25832 
31 25244 
32 23228 
33 22970 
34 22170 
35 20882 
36 20134 
37 19898 
38 19692 
39 19458 
40 18786 
41 18344 
42 17704 
43 16146 
44 16112 
45 15196 
46 12874 
47 12778 
48 11938 
49 11840 
50 11264 
51 11230 
52 11164 
53 11008 
54 10690 
55 10302 
56 10102 
57 10102 

